0 2 2 2 2 2 2 2 2 2 2 2 2 2 2 2 
2 0 9 8 15 3 5 19 3 11 9 4 17 11 9 8 
2 9 0 8 9 9 5 17 3 1 9 9 9 9 9 10 
2 8 8 0 10 12 5 10 3 6 10 14 12 16 9 12 
2 15 9 10 0 6 5 20 3 8 8 14 3 3 9 13 
2 3 9 12 6 0 5 19 3 11 3 1 3 4 9 15 
2 5 5 5 5 5 0 5 3 5 5 5 5 5 9 5 
2 19 17 10 20 19 5 0 3 15 12 11 11 20 9 6 
2 3 3 3 3 3 3 3 0 3 3 3 3 3 3 3 
2 11 1 6 8 11 5 15 3 0 3 10 5 6 9 9 
2 9 9 10 8 3 5 12 3 3 0 13 8 8 9 9 
2 4 9 14 14 1 5 11 3 10 13 0 9 5 9 15 
2 17 9 12 3 3 5 11 3 5 8 9 0 9 9 13 
2 11 9 16 3 4 5 20 3 6 8 5 9 0 9 13 
2 9 9 9 9 9 9 9 3 9 9 9 9 9 0 9 
2 8 10 12 13 15 5 6 3 9 9 15 13 13 9 0 